# 2.7.1.19_group0_PF00485_30-85~2.7.1.48_group0_PF00485_30-85.sdpA
# All alignment positions within 5\AA of a ligand/cat site passing the sdpA filter.  Column indices start with 0.
7
10
62
81
136
164
165
175
188
